# AMPL MODEL: ./res/solid.ampl

# Timestamp: 11 February 2025, 17:40:56 PM

param MAXWORK := 32;

param:
TNAME: TWORK :=
'p2.e' 40
'p2.f' 240
'p2.m' 680
'p3.e' 16
'p3.f' 96
'p3.m' 448
'p4.e' 60
'p4.f' 160
'p4.m' 960;

set TSCOPE['p2.e'] :=
1 2 5 6 7 8 9 12 13 14
;

set TSCOPE['p2.f'] :=
134 135 138 139 140 141 142 145 146 147 148 149 152 153 154 155 156 159 160 161
;

set TSCOPE['p2.m'] :=
15 16 19 20 21 22 23 26 27 28 29 30 33 34 36 37 40 41 42 43 44 47 48 49 50 51 54 55 56 57 58 61 62 63 64 65 68 69 70 71 72 75 76 77 78 79 82 83 84 85
86 89 90 91 92 93 96 97 98 99 100 103 104 105 106 107 110 111 112 113 114 117 118 119 120 121 124 125 126 127 128 131 132 133
;

set TSCOPE['p3.e'] :=
12 13 14 15 16 19 20 21 22 23
;

set TSCOPE['p3.f'] :=
194 195 196 197 198 201 202 203 204 205 208 209 210 211 212 215 216 217 218 219
;

set TSCOPE['p3.m'] :=
26 27 28 29 30 33 34 36 37 40 41 42 43 44 47 48 49 50 51 54 55 56 57 58 61 62 63 64 65 68 69 70 71 72 75 76 77 78 79 82 83 84 85 86 89 90 91 92 93 96
97 98 99 100 103 104 105 106 107 110 111 112 113 114 117 118 119 120 121 124 125 126 127 128 131 132 133 134 135 138 139 140 141 142 145 146 147 148 149 152 153 154 155 156 159 160 161 162 163 166
167 168 169 170 173 174 175 176 177 180 181 182 183 184 187 188 189 190 191
;

set TSCOPE['p4.e'] :=
26 27 28 29 30 33 34 36 37 40 41 42 43 44
;

set TSCOPE['p4.f'] :=
215 216 217 218 219 222 223 224 225 226 229 230 231 232 233 236 237 238 239 240
;

set TSCOPE['p4.m'] :=
47 48 49 50 51 54 55 56 57 58 61 62 63 64 65 68 69 70 71 72 75 76 77 78 79 82 83 84 85 86 89 90 91 92 93 96 97 98 99 100 103 104 105 106 107 110 111 112 113 114
117 118 119 120 121 124 125 126 127 128 131 132 133 134 135 138 139 140 141 142 145 146 147 148 149 152 153 154 155 156 159 160 161 162 163 166 167 168 169 170 173 174 175 176 177 180 181 182 183 184
187 188 189 190 191 194 195 196 197 198 201 202 203 204 205 208 209 210 211 212
;

set ENAME :=
'Radosław';

set ASSIGN :=
('Radosław',*)
'p2.e'
'p2.f'
'p2.m'
'p3.e'
'p3.f'
'p3.m'
'p4.e'
'p4.f'
'p4.m';

param:
XBID: XBEXPERT XBTASK XBS XBE XBL XBU :=
1 'Radosław' 'p2.e' 1 14 4 4
2 'Radosław' 'p2.f' 134 161 0 12
3 'Radosław' 'p2.m' 15 133 4 12
4 'Radosław' 'p3.e' 11 17 0 4
5 'Radosław' 'p3.e' 18 24 0 8
6 'Radosław' 'p3.f' 194 198 8 8
7 'Radosław' 'p3.f' 201 219 0 4
8 'Radosław' 'p3.m' 24 191 0 4
9 'Radosław' 'p4.e' 26 44 0 8
10 'Radosław' 'p4.f' 213 240 0 8
11 'Radosław' 'p4.m' 45 104 12 12
12 'Radosław' 'p4.m' 105 162 8 8
13 'Radosław' 'p4.m' 163 212 0 4;

param:
EBID: EBEXPERT EBS EBE EBL EBU :=
;

param:
PNAME: PERS PERE :=
'25.Jan' 21 56
'25.Feb' 57 85
'25.Mar' 86 116
'25.Apr' 117 145
'25.May' 146 179;

param:
EXPPER: PBL PBU :=
['Radosław',*]
'25.Jan' 0 800;

